(set-logic HORN)
(declare-datatypes ((Nat_494 0)) (((zero_132 ) (succ_129 (p_361 Nat_494)))))
(declare-fun diseqNat_494 (Nat_494 Nat_494) Bool)
(declare-fun p_363 (Nat_494 Nat_494) Bool)
(declare-fun iszero_129 (Nat_494) Bool)
(declare-fun issucc_129 (Nat_494) Bool)
(assert (forall ((x_52248 Nat_494))
	(p_363 x_52248 (succ_129 x_52248))))
(assert (iszero_129 zero_132))
(assert (forall ((x_52250 Nat_494))
	(issucc_129 (succ_129 x_52250))))
(assert (forall ((x_52251 Nat_494))
	(diseqNat_494 zero_132 (succ_129 x_52251))))
(assert (forall ((x_52252 Nat_494))
	(diseqNat_494 (succ_129 x_52252) zero_132)))
(assert (forall ((x_52253 Nat_494) (x_52254 Nat_494))
	(=> (diseqNat_494 x_52253 x_52254)
	    (diseqNat_494 (succ_129 x_52253) (succ_129 x_52254)))))
(declare-datatypes ((Integer_11 0)) (((P_362 (projP_22 Nat_494)) (N_102 (projN_22 Nat_494)))))
(declare-fun diseqInteger_11 (Integer_11 Integer_11) Bool)
(declare-fun projP_23 (Nat_494 Integer_11) Bool)
(declare-fun projN_23 (Nat_494 Integer_11) Bool)
(declare-fun isP_13 (Integer_11) Bool)
(declare-fun isN_11 (Integer_11) Bool)
(assert (forall ((x_52255 Nat_494))
	(projP_23 x_52255 (P_362 x_52255))))
(assert (forall ((x_52257 Nat_494))
	(projN_23 x_52257 (N_102 x_52257))))
(assert (forall ((x_52259 Nat_494))
	(isP_13 (P_362 x_52259))))
(assert (forall ((x_52260 Nat_494))
	(isN_11 (N_102 x_52260))))
(assert (forall ((x_52261 Nat_494) (x_52262 Nat_494))
	(diseqInteger_11 (P_362 x_52261) (N_102 x_52262))))
(assert (forall ((x_52263 Nat_494) (x_52264 Nat_494))
	(diseqInteger_11 (N_102 x_52263) (P_362 x_52264))))
(assert (forall ((x_52265 Nat_494) (x_52266 Nat_494))
	(=> (diseqNat_494 x_52265 x_52266)
	    (diseqInteger_11 (P_362 x_52265) (P_362 x_52266)))))
(assert (forall ((x_52267 Nat_494) (x_52268 Nat_494))
	(=> (diseqNat_494 x_52267 x_52268)
	    (diseqInteger_11 (N_102 x_52267) (N_102 x_52268)))))
(declare-fun zero_133 (Integer_11) Bool)
(assert (zero_133 (P_362 zero_132)))
(declare-fun plus_126 (Nat_494 Nat_494 Nat_494) Bool)
(assert (forall ((x_52206 Nat_494) (z_1772 Nat_494) (y_1992 Nat_494))
	(=> (plus_126 x_52206 z_1772 y_1992)
	    (plus_126 (succ_129 x_52206) (succ_129 z_1772) y_1992))))
(assert (forall ((x_52207 Nat_494))
	(plus_126 x_52207 zero_132 x_52207)))
(declare-fun neg_7 (Integer_11 Integer_11) Bool)
(assert (forall ((x_52209 Nat_494) (n_103 Nat_494))
	(=> (plus_126 x_52209 (succ_129 zero_132) n_103)
	    (neg_7 (P_362 x_52209) (N_102 n_103)))))
(assert (forall ((z_1773 Nat_494))
	(neg_7 (N_102 z_1773) (P_362 (succ_129 z_1773)))))
(assert (neg_7 (P_362 zero_132) (P_362 zero_132)))
(declare-fun x_52193 (Integer_11 Nat_494 Nat_494) Bool)
(assert (forall ((x_52195 Nat_494) (z_1774 Nat_494) (fail_31 Integer_11))
	(=> (x_52193 fail_31 x_52195 z_1774)
	    (x_52193 fail_31 (succ_129 x_52195) (succ_129 z_1774)))))
(assert (forall ((x_52197 Nat_494))
	(x_52193 (N_102 (succ_129 x_52197)) zero_132 (succ_129 x_52197))))
(assert (forall ((x_52196 Nat_494))
	(x_52193 (P_362 (succ_129 x_52196)) (succ_129 x_52196) zero_132)))
(assert (x_52193 (P_362 zero_132) zero_132 zero_132))
(declare-fun plus_127 (Integer_11 Integer_11 Integer_11) Bool)
(assert (forall ((x_52225 Nat_494) (x_52226 Nat_494) (n_104 Nat_494) (m_40 Nat_494))
	(=>	(and (plus_126 x_52225 (succ_129 zero_132) m_40)
			(plus_126 x_52226 x_52225 n_104))
		(plus_127 (N_102 x_52226) (N_102 m_40) (N_102 n_104)))))
(assert (forall ((x_52227 Integer_11) (x_52228 Nat_494) (n_105 Nat_494) (m_40 Nat_494))
	(=>	(and (plus_126 x_52228 (succ_129 zero_132) m_40)
			(x_52193 x_52227 n_105 x_52228))
		(plus_127 x_52227 (N_102 m_40) (P_362 n_105)))))
(assert (forall ((x_52230 Integer_11) (x_52231 Nat_494) (o_7 Nat_494) (m_41 Nat_494))
	(=>	(and (plus_126 x_52231 (succ_129 zero_132) o_7)
			(x_52193 x_52230 m_41 x_52231))
		(plus_127 x_52230 (P_362 m_41) (N_102 o_7)))))
(assert (forall ((x_52234 Nat_494) (n_106 Nat_494) (m_41 Nat_494))
	(=> (plus_126 x_52234 m_41 n_106)
	    (plus_127 (P_362 x_52234) (P_362 m_41) (P_362 n_106)))))
(assert (forall ((x_52235 Integer_11) (x_52236 Integer_11) (x_52237 Integer_11) (x_52199 Integer_11))
	(=>	(and true
			(diseqInteger_11 x_52236 x_52237)
			(neg_7 x_52235 x_52199)
			(plus_127 x_52236 x_52235 x_52199)
			(zero_133 x_52237))
		false)))
(assert (forall ((x_52238 Nat_494) (x_52239 Nat_494) (x_52240 Nat_494) (x_52241 Nat_494) (x_52200 Nat_494) (y_1996 Nat_494) (z_1775 Nat_494))
	(=>	(and true
			(diseqNat_494 x_52239 x_52241)
			(plus_126 x_52238 y_1996 z_1775)
			(plus_126 x_52239 x_52200 x_52238)
			(plus_126 x_52240 x_52200 y_1996)
			(plus_126 x_52241 x_52240 z_1775))
		false)))
(assert (forall ((x_52242 Nat_494) (x_52243 Nat_494) (x_52201 Nat_494) (y_1997 Nat_494))
	(=>	(and true
			(diseqNat_494 x_52242 x_52243)
			(plus_126 x_52242 x_52201 y_1997)
			(plus_126 x_52243 y_1997 x_52201))
		false)))
(assert (forall ((x_52244 Nat_494) (x_52202 Nat_494))
	(=>	(and true
			(diseqNat_494 x_52244 x_52202)
			(plus_126 x_52244 x_52202 zero_132))
		false)))
(assert (forall ((x_52245 Nat_494) (x_52203 Nat_494))
	(=>	(and true
			(diseqNat_494 x_52245 x_52203)
			(plus_126 x_52245 zero_132 x_52203))
		false)))
(check-sat)
